NAME : berlin52-C-5-1-c.8509.tour
COMMENT : Length = 8509
COMMENT : Found by LKH-3 [Keld Helsgaun] Tue Jul 30 13:14:05 2024
TYPE : TOUR
DIMENSION : 52
TOUR_SECTION
1
45
19
41
8
9
10
33
43
4
6
15
5
24
48
38
40
39
31
21
42
2
7
17
3
18
32
37
46
25
12
51
11
52
14
13
27
28
26
47
29
30
23
20
50
16
44
34
35
36
49
22
-1
EOF
